
  22    4
  10   10   10   10

   0   0   0   0   0   7 2 3 4 5 6 8 10 
   3  10  10  10  10   3 19 16 9 
   8  10  10  10  10   6 19 18 17 15 14 13 
   2  10  10  10  10   1 7 
   7  10  10  10  10   6 21 20 17 16 15 14 
   4  10  10  10  10   5 20 18 15 14 12 
   2  10  10  10  10   4 20 15 14 11 
  10  10  10  10  10   5 19 18 17 15 14 
   3  10  10  10  10   4 18 15 14 12 
   2  10  10  10  10   3 21 18 14 
   6  10  10  10  10   2 19 16 
   9  10  10  10  10   1 17 
   9  10  10  10  10   1 16 
  10  10  10  10  10   1 22
   9  10  10  10  10   1 22
   6  10  10  10  10   1 22
   9  10  10  10  10   1 22
  10  10  10  10  10   1 22
   6  10  10  10  10   1 22
  10  10  10  10  10   1 22
   2  10  10  10  10   1 22
   0   0   0   0   0   0 
